sat
(model 
  (define-fun inv ((x!0 Int)) Bool
    (let ((a!1 (ite (<= 5 x!0) (ite (<= 6 x!0) (ite (<= 7 x!0) 7 6) 5) 4)))
    (let ((a!2 (ite (<= 2 x!0) (ite (<= 3 x!0) (ite (<= 4 x!0) a!1 3) 2) 0)))
      (or (= a!2 6) (= a!2 2) (= a!2 3) (= a!2 5) (= a!2 4) (= a!2 0)))))
)
